c Reduced graph for p26_2 generated by Cyril Grelier
p edge 33 115
v 1 128
v 2 120
v 3 120
v 4 120
v 5 120
v 6 120
v 7 120
v 8 112
v 9 100
v 10 90
v 11 90
v 12 80
v 13 80
v 14 80
v 15 80
v 16 80
v 17 70
v 18 68
v 19 60
v 20 50
v 21 46
v 22 40
v 23 40
v 24 30
v 25 30
v 26 30
v 27 28
v 28 24
v 29 20
v 30 20
v 31 20
v 32 12
v 33 10
e 1 8
e 1 17
e 1 24
e 1 33
e 2 3
e 2 5
e 2 12
e 2 13
e 2 14
e 2 17
e 2 21
e 2 22
e 2 29
e 2 32
e 3 6
e 3 17
e 3 20
e 3 21
e 3 22
e 3 29
e 3 30
e 3 32
e 4 12
e 4 15
e 4 21
e 4 28
e 4 30
e 4 31
e 4 33
e 5 11
e 5 12
e 5 13
e 5 14
e 5 16
e 5 26
e 6 7
e 6 14
e 6 20
e 6 24
e 6 25
e 6 30
e 7 14
e 7 23
e 7 24
e 7 25
e 7 26
e 8 28
e 8 32
e 9 10
e 9 15
e 9 16
e 9 18
e 9 20
e 10 13
e 10 16
e 10 19
e 10 23
e 10 27
e 11 16
e 11 18
e 11 26
e 11 27
e 11 29
e 12 13
e 12 14
e 12 28
e 12 30
e 12 31
e 12 33
e 13 14
e 13 19
e 13 23
e 13 27
e 14 24
e 14 25
e 15 18
e 15 20
e 15 21
e 16 26
e 17 21
e 17 22
e 17 24
e 17 29
e 17 32
e 17 33
e 18 20
e 18 27
e 18 29
e 19 22
e 19 23
e 19 25
e 19 27
e 19 31
e 20 30
e 21 22
e 21 29
e 21 32
e 22 25
e 22 29
e 22 31
e 22 32
e 23 26
e 23 27
e 24 25
e 24 33
e 25 31
e 27 29
e 28 30
e 28 31
e 28 32
e 28 33
e 29 32
e 30 31
e 30 33
e 31 33
